30
1 0 9
2 0 10
2 1 7
3 0 2
3 1 5
3 2 7
4 0 2
4 1 6
4 2 4
4 3 1
5 0 4
5 1 10
5 2 4
5 3 1
5 4 4
6 0 4
6 1 8
6 2 5
6 3 3
6 4 10
6 5 9
7 0 10
7 1 9
7 2 7
7 3 5
7 4 8
7 5 9
7 6 4
8 0 4
8 1 9
8 2 10
8 3 9
8 4 10
8 5 6
8 6 7
8 7 1
9 0 3
9 1 10
9 2 1
9 3 6
9 4 8
9 5 5
9 6 1
9 7 4
9 8 7
10 0 1
10 1 7
10 2 4
10 3 4
10 4 1
10 5 6
10 6 3
10 7 9
10 8 7
10 9 6
11 0 6
11 1 2
11 2 10
11 3 8
11 4 10
11 5 7
11 6 3
11 7 3
11 8 6
11 9 4
11 10 1
12 0 3
12 1 2
12 2 9
12 3 8
12 4 3
12 5 1
12 6 4
12 7 1
12 8 1
12 9 6
12 10 9
12 11 3
13 0 2
13 1 4
13 2 4
13 3 4
13 4 9
13 5 10
13 6 3
13 7 5
13 8 7
13 9 10
13 10 4
13 11 5
13 12 10
14 0 7
14 1 8
14 2 3
14 3 8
14 4 4
14 5 8
14 6 1
14 7 4
14 8 7
14 9 3
14 10 10
14 11 5
14 12 4
14 13 4
15 0 5
15 1 5
15 2 1
15 3 3
15 4 2
15 5 3
15 6 8
15 7 9
15 8 10
15 9 4
15 10 10
15 11 2
15 12 10
15 13 5
15 14 5
16 0 3
16 1 8
16 2 5
16 3 8
16 4 2
16 5 4
16 6 4
16 7 1
16 8 9
16 9 7
16 10 8
16 11 2
16 12 9
16 13 3
16 14 6
16 15 1
17 0 4
17 1 9
17 2 5
17 3 8
17 4 1
17 5 4
17 6 10
17 7 1
17 8 6
17 9 10
17 10 10
17 11 1
17 12 4
17 13 7
17 14 5
17 15 5
17 16 4
18 0 6
18 1 10
18 2 7
18 3 3
18 4 5
18 5 5
18 6 9
18 7 3
18 8 10
18 9 1
18 10 5
18 11 10
18 12 1
18 13 8
18 14 5
18 15 5
18 16 8
18 17 8
19 0 9
19 1 7
19 2 7
19 3 1
19 4 8
19 5 10
19 6 5
19 7 4
19 8 8
19 9 8
19 10 9
19 11 2
19 12 5
19 13 7
19 14 3
19 15 7
19 16 5
19 17 7
19 18 5
20 0 6
20 1 7
20 2 7
20 3 9
20 4 2
20 5 2
20 6 5
20 7 7
20 8 6
20 9 5
20 10 10
20 11 8
20 12 3
20 13 3
20 14 3
20 15 10
20 16 1
20 17 10
20 18 3
20 19 7
21 0 10
21 1 1
21 2 4
21 3 9
21 4 4
21 5 4
21 6 7
21 7 3
21 8 7
21 9 1
21 10 3
21 11 9
21 12 5
21 13 3
21 14 10
21 15 7
21 16 8
21 17 3
21 18 4
21 19 10
21 20 10
22 0 10
22 1 7
22 2 4
22 3 10
22 4 8
22 5 6
22 6 8
22 7 4
22 8 5
22 9 2
22 10 10
22 11 4
22 12 1
22 13 5
22 14 4
22 15 10
22 16 6
22 17 7
22 18 9
22 19 9
22 20 10
22 21 5
23 0 3
23 1 1
23 2 5
23 3 9
23 4 7
23 5 4
23 6 4
23 7 7
23 8 7
23 9 9
23 10 8
23 11 8
23 12 10
23 13 10
23 14 1
23 15 9
23 16 2
23 17 6
23 18 7
23 19 2
23 20 2
23 21 4
23 22 5
24 0 9
24 1 4
24 2 9
24 3 10
24 4 9
24 5 4
24 6 6
24 7 1
24 8 3
24 9 5
24 10 6
24 11 3
24 12 10
24 13 10
24 14 8
24 15 2
24 16 9
24 17 5
24 18 9
24 19 10
24 20 4
24 21 4
24 22 1
24 23 9
25 0 8
25 1 10
25 2 6
25 3 7
25 4 8
25 5 6
25 6 9
25 7 6
25 8 10
25 9 5
25 10 2
25 11 5
25 12 7
25 13 10
25 14 10
25 15 1
25 16 3
25 17 7
25 18 4
25 19 10
25 20 4
25 21 7
25 22 6
25 23 6
25 24 8
26 0 10
26 1 7
26 2 2
26 3 4
26 4 8
26 5 6
26 6 2
26 7 7
26 8 10
26 9 8
26 10 5
26 11 5
26 12 2
26 13 9
26 14 6
26 15 10
26 16 9
26 17 1
26 18 5
26 19 5
26 20 6
26 21 1
26 22 3
26 23 5
26 24 5
26 25 9
27 0 3
27 1 5
27 2 6
27 3 10
27 4 1
27 5 8
27 6 5
27 7 10
27 8 2
27 9 10
27 10 8
27 11 4
27 12 4
27 13 6
27 14 10
27 15 9
27 16 2
27 17 8
27 18 8
27 19 3
27 20 4
27 21 10
27 22 9
27 23 8
27 24 1
27 25 4
27 26 4
28 0 2
28 1 3
28 2 5
28 3 3
28 4 9
28 5 6
28 6 1
28 7 4
28 8 6
28 9 2
28 10 1
28 11 4
28 12 1
28 13 7
28 14 2
28 15 9
28 16 5
28 17 5
28 18 6
28 19 10
28 20 7
28 21 10
28 22 10
28 23 4
28 24 6
28 25 1
28 26 1
28 27 6
29 0 7
29 1 1
29 2 7
29 3 8
29 4 5
29 5 5
29 6 5
29 7 1
29 8 2
29 9 2
29 10 10
29 11 8
29 12 7
29 13 8
29 14 8
29 15 8
29 16 5
29 17 1
29 18 8
29 19 3
29 20 10
29 21 2
29 22 5
29 23 6
29 24 5
29 25 6
29 26 6
29 27 7
29 28 5
